unsat
(:added-eqs                       221
 :arith-eq-adapter                23
 :arith-bound-propagations-lp     14
 :arith-conflicts                 51
 :arith-diseq                     66
 :arith-fixed-eqs                 1
 :arith-gcd-calls                 18
 :arith-grobner-calls             31
 :arith-grobner-conflicts         5
 :arith-horner-calls              12
 :arith-horner-cross-nested-forms 357
 :arith-lower                     192
 :arith-make-feasible             231
 :arith-max-columns               51
 :arith-max-rows                  21
 :arith-nla-add-bounds            12
 :arith-nla-lemmas                29
 :arith-nla-propagate-bounds      13
 :arith-nla-propagate-eq          46
 :arith-nra-calls                 25
 :arith-patches                   18
 :arith-patches-success           18
 :arith-upper                     258
 :binary-propagations             676
 :card2bv-rewrites                5
 :conflicts                       70
 :decisions                       539
 :del-clause                      35
 :elim-unconstrained              3
 :final-checks                    58
 :max-memory                      147.91
 :memory                          88.85
 :minimized-lits                  43
 :mk-bool-var                     147
 :mk-clause                       137
 :mk-clause-binary                91
 :nlsat-conflicts                 409
 :nlsat-propagations              3018
 :nlsat-stages                    1463
 :num-allocs                      420871977
 :num-checks                      1
 :propagations                    1081
 :rlimit-count                    1084930
 :sat-backjumps                   501
 :sat-conflicts                   501
 :sat-decisions                   1283
 :sat-del-clause                  61855
 :sat-elim-bool-vars-res          12309
 :sat-elim-clauses                11
 :sat-elim-literals               487
 :sat-minimized-lits              5521
 :sat-mk-clause-2ary              44424
 :sat-mk-clause-3ary              14549
 :sat-mk-clause-nary              103710
 :sat-mk-var                      26652
 :sat-probing-assigned            2
 :sat-propagations-2ary           295471
 :sat-propagations-nary           215169
 :sat-restarts                    4
 :sat-scc-elim-binary             46
 :sat-scc-elim-vars               6
 :sat-subs-resolution             468
 :sat-subs-resolution-dyn         728
 :sat-subsumed                    12724
 :sat-units                       3
 :time                            0.71
 :total-time                      0.72)
